c description: Subset cardinality formula for fast_gnp_random_graph(6,8,0.9)
c generator: CNFgen (0.9.0)
c copyright: (C) 2012-2020 Massimo Lauria <massimo.lauria@uniroma1.it>
c url: https://massimolauria.net/cnfgen
c
p cnf 44 353
1 2 3 4 5 0
1 2 3 4 6 0
1 2 3 4 7 0
1 2 3 4 8 0
1 2 3 5 6 0
1 2 3 5 7 0
1 2 3 5 8 0
1 2 3 6 7 0
1 2 3 6 8 0
1 2 3 7 8 0
1 2 4 5 6 0
1 2 4 5 7 0
1 2 4 5 8 0
1 2 4 6 7 0
1 2 4 6 8 0
1 2 4 7 8 0
1 2 5 6 7 0
1 2 5 6 8 0
1 2 5 7 8 0
1 2 6 7 8 0
1 3 4 5 6 0
1 3 4 5 7 0
1 3 4 5 8 0
1 3 4 6 7 0
1 3 4 6 8 0
1 3 4 7 8 0
1 3 5 6 7 0
1 3 5 6 8 0
1 3 5 7 8 0
1 3 6 7 8 0
1 4 5 6 7 0
1 4 5 6 8 0
1 4 5 7 8 0
1 4 6 7 8 0
1 5 6 7 8 0
2 3 4 5 6 0
2 3 4 5 7 0
2 3 4 5 8 0
2 3 4 6 7 0
2 3 4 6 8 0
2 3 4 7 8 0
2 3 5 6 7 0
2 3 5 6 8 0
2 3 5 7 8 0
2 3 6 7 8 0
2 4 5 6 7 0
2 4 5 6 8 0
2 4 5 7 8 0
2 4 6 7 8 0
2 5 6 7 8 0
3 4 5 6 7 0
3 4 5 6 8 0
3 4 5 7 8 0
3 4 6 7 8 0
3 5 6 7 8 0
4 5 6 7 8 0
9 10 11 12 13 0
9 10 11 12 14 0
9 10 11 12 15 0
9 10 11 12 16 0
9 10 11 13 14 0
9 10 11 13 15 0
9 10 11 13 16 0
9 10 11 14 15 0
9 10 11 14 16 0
9 10 11 15 16 0
9 10 12 13 14 0
9 10 12 13 15 0
9 10 12 13 16 0
9 10 12 14 15 0
9 10 12 14 16 0
9 10 12 15 16 0
9 10 13 14 15 0
9 10 13 14 16 0
9 10 13 15 16 0
9 10 14 15 16 0
9 11 12 13 14 0
9 11 12 13 15 0
9 11 12 13 16 0
9 11 12 14 15 0
9 11 12 14 16 0
9 11 12 15 16 0
9 11 13 14 15 0
9 11 13 14 16 0
9 11 13 15 16 0
9 11 14 15 16 0
9 12 13 14 15 0
9 12 13 14 16 0
9 12 13 15 16 0
9 12 14 15 16 0
9 13 14 15 16 0
10 11 12 13 14 0
10 11 12 13 15 0
10 11 12 13 16 0
10 11 12 14 15 0
10 11 12 14 16 0
10 11 12 15 16 0
10 11 13 14 15 0
10 11 13 14 16 0
10 11 13 15 16 0
10 11 14 15 16 0
10 12 13 14 15 0
10 12 13 14 16 0
10 12 13 15 16 0
10 12 14 15 16 0
10 13 14 15 16 0
11 12 13 14 15 0
11 12 13 14 16 0
11 12 13 15 16 0
11 12 14 15 16 0
11 13 14 15 16 0
12 13 14 15 16 0
17 18 19 20 0
17 18 19 21 0
17 18 19 22 0
17 18 19 23 0
17 18 20 21 0
17 18 20 22 0
17 18 20 23 0
17 18 21 22 0
17 18 21 23 0
17 18 22 23 0
17 19 20 21 0
17 19 20 22 0
17 19 20 23 0
17 19 21 22 0
17 19 21 23 0
17 19 22 23 0
17 20 21 22 0
17 20 21 23 0
17 20 22 23 0
17 21 22 23 0
18 19 20 21 0
18 19 20 22 0
18 19 20 23 0
18 19 21 22 0
18 19 21 23 0
18 19 22 23 0
18 20 21 22 0
18 20 21 23 0
18 20 22 23 0
18 21 22 23 0
19 20 21 22 0
19 20 21 23 0
19 20 22 23 0
19 21 22 23 0
20 21 22 23 0
24 25 26 27 28 0
24 25 26 27 29 0
24 25 26 27 30 0
24 25 26 27 31 0
24 25 26 28 29 0
24 25 26 28 30 0
24 25 26 28 31 0
24 25 26 29 30 0
24 25 26 29 31 0
24 25 26 30 31 0
24 25 27 28 29 0
24 25 27 28 30 0
24 25 27 28 31 0
24 25 27 29 30 0
24 25 27 29 31 0
24 25 27 30 31 0
24 25 28 29 30 0
24 25 28 29 31 0
24 25 28 30 31 0
24 25 29 30 31 0
24 26 27 28 29 0
24 26 27 28 30 0
24 26 27 28 31 0
24 26 27 29 30 0
24 26 27 29 31 0
24 26 27 30 31 0
24 26 28 29 30 0
24 26 28 29 31 0
24 26 28 30 31 0
24 26 29 30 31 0
24 27 28 29 30 0
24 27 28 29 31 0
24 27 28 30 31 0
24 27 29 30 31 0
24 28 29 30 31 0
25 26 27 28 29 0
25 26 27 28 30 0
25 26 27 28 31 0
25 26 27 29 30 0
25 26 27 29 31 0
25 26 27 30 31 0
25 26 28 29 30 0
25 26 28 29 31 0
25 26 28 30 31 0
25 26 29 30 31 0
25 27 28 29 30 0
25 27 28 29 31 0
25 27 28 30 31 0
25 27 29 30 31 0
25 28 29 30 31 0
26 27 28 29 30 0
26 27 28 29 31 0
26 27 28 30 31 0
26 27 29 30 31 0
26 28 29 30 31 0
27 28 29 30 31 0
32 33 34 35 0
32 33 34 36 0
32 33 34 37 0
32 33 35 36 0
32 33 35 37 0
32 33 36 37 0
32 34 35 36 0
32 34 35 37 0
32 34 36 37 0
32 35 36 37 0
33 34 35 36 0
33 34 35 37 0
33 34 36 37 0
33 35 36 37 0
34 35 36 37 0
38 39 40 41 0
38 39 40 42 0
38 39 40 43 0
38 39 40 44 0
38 39 41 42 0
38 39 41 43 0
38 39 41 44 0
38 39 42 43 0
38 39 42 44 0
38 39 43 44 0
38 40 41 42 0
38 40 41 43 0
38 40 41 44 0
38 40 42 43 0
38 40 42 44 0
38 40 43 44 0
38 41 42 43 0
38 41 42 44 0
38 41 43 44 0
38 42 43 44 0
39 40 41 42 0
39 40 41 43 0
39 40 41 44 0
39 40 42 43 0
39 40 42 44 0
39 40 43 44 0
39 41 42 43 0
39 41 42 44 0
39 41 43 44 0
39 42 43 44 0
40 41 42 43 0
40 41 42 44 0
40 41 43 44 0
40 42 43 44 0
41 42 43 44 0
-1 -9 -17 0
-1 -9 -24 0
-1 -9 -32 0
-1 -17 -24 0
-1 -17 -32 0
-1 -24 -32 0
-9 -17 -24 0
-9 -17 -32 0
-9 -24 -32 0
-17 -24 -32 0
-2 -10 -18 -25 0
-2 -10 -18 -33 0
-2 -10 -18 -38 0
-2 -10 -25 -33 0
-2 -10 -25 -38 0
-2 -10 -33 -38 0
-2 -18 -25 -33 0
-2 -18 -25 -38 0
-2 -18 -33 -38 0
-2 -25 -33 -38 0
-10 -18 -25 -33 0
-10 -18 -25 -38 0
-10 -18 -33 -38 0
-10 -25 -33 -38 0
-18 -25 -33 -38 0
-3 -11 -19 -26 0
-3 -11 -19 -34 0
-3 -11 -19 -39 0
-3 -11 -26 -34 0
-3 -11 -26 -39 0
-3 -11 -34 -39 0
-3 -19 -26 -34 0
-3 -19 -26 -39 0
-3 -19 -34 -39 0
-3 -26 -34 -39 0
-11 -19 -26 -34 0
-11 -19 -26 -39 0
-11 -19 -34 -39 0
-11 -26 -34 -39 0
-19 -26 -34 -39 0
-4 -12 -20 0
-4 -12 -27 0
-4 -12 -40 0
-4 -20 -27 0
-4 -20 -40 0
-4 -27 -40 0
-12 -20 -27 0
-12 -20 -40 0
-12 -27 -40 0
-20 -27 -40 0
-5 -13 -21 -28 0
-5 -13 -21 -35 0
-5 -13 -21 -41 0
-5 -13 -28 -35 0
-5 -13 -28 -41 0
-5 -13 -35 -41 0
-5 -21 -28 -35 0
-5 -21 -28 -41 0
-5 -21 -35 -41 0
-5 -28 -35 -41 0
-13 -21 -28 -35 0
-13 -21 -28 -41 0
-13 -21 -35 -41 0
-13 -28 -35 -41 0
-21 -28 -35 -41 0
-6 -14 -22 -29 0
-6 -14 -22 -36 0
-6 -14 -22 -42 0
-6 -14 -29 -36 0
-6 -14 -29 -42 0
-6 -14 -36 -42 0
-6 -22 -29 -36 0
-6 -22 -29 -42 0
-6 -22 -36 -42 0
-6 -29 -36 -42 0
-14 -22 -29 -36 0
-14 -22 -29 -42 0
-14 -22 -36 -42 0
-14 -29 -36 -42 0
-22 -29 -36 -42 0
-7 -15 -23 0
-7 -15 -30 0
-7 -15 -43 0
-7 -23 -30 0
-7 -23 -43 0
-7 -30 -43 0
-15 -23 -30 0
-15 -23 -43 0
-15 -30 -43 0
-23 -30 -43 0
-8 -16 -31 0
-8 -16 -37 0
-8 -16 -44 0
-8 -31 -37 0
-8 -31 -44 0
-8 -37 -44 0
-16 -31 -37 0
-16 -31 -44 0
-16 -37 -44 0
-31 -37 -44 0